(declare-fun Constructed_Argument_t () String)
(declare-fun Constructed_Argument_Array_Length () Int)
(declare-fun Constructed_Argument_2_t () String)
(declare-fun Constructed_Argument_2_Array_Length () Int)
(declare-fun CreateAsClass () Bool)
(assert (= Constructed_Argument_t (str.++ (seq.unit #x61) (seq.unit #x72) (seq.unit #x72) (seq.unit #x61) (seq.unit #x79) (seq.unit #x5f) (seq.unit #x62) (seq.unit #x6f) (seq.unit #x6f) (seq.unit #x6c))))
(assert (>= Constructed_Argument_Array_Length 0))
(assert (= Constructed_Argument_2_t (str.++ (seq.unit #x61) (seq.unit #x72) (seq.unit #x72) (seq.unit #x61) (seq.unit #x79) (seq.unit #x5f) (seq.unit #x62) (seq.unit #x6f) (seq.unit #x6f) (seq.unit #x6c))))
(assert (>= Constructed_Argument_2_Array_Length 0))
(assert CreateAsClass)
(check-sat)
